language Essence 1.3

letting bot_end be [1011, 220, 43, 975, 38, 21, 66, 24, 991, 19, 2, 921, 48, 40, 13, 20; int(1..16)]
letting bot_start be [9, 1011, 953, 20, 970, 836, 963, 965, 174, 952, 835, 25, 944, 858, 992, 999; int(1..16)]
letting buffer_col be 2
letting buffer_row be 2
letting corridor_size be 1
letting n_shelves_col be 6
letting n_shelves_row be 21
letting shelf_col_size be 2
letting shelf_row_size be 1
